120
150
53
48
46
41
52
58
48
44
52
41
57
40
55
56
51
43
40
51
60
49
41
51
42
57
46
45
59
40
40
40
53
47
50
40
40
40
56
53
41
49
50
51
55
40
57
55
40
56
60
47
43
51
47
52
40
40
46
40
40
40
43
59
48
52
43
55
40
56
57
46
47
48
43
59
54
53
43
48
49
53
40
52
59
59
53
49
48
40
51
60
40
52
59
59
44
47
48
49
53
41
51
58
56
52
41
49
56
45
44
53
53
57
57
50
41
60
59
49
51
50
